p cnf 14 64
6 7 14 0
-5 -7 -9 0
7 -9 -12 0
-2 -8 -14 0
3 -11 -13 0
4 -7 14 0
2 3 11 0
-1 3 -13 0
2 -9 -10 0
1 -4 -5 0
3 -8 -9 0
8 -9 12 0
-1 -4 9 0
5 11 14 0
-1 6 8 0
-3 -9 10 0
4 -7 -13 0
-1 2 -13 0
-2 9 14 0
2 6 -7 0
5 -7 14 0
-2 -8 -12 0
-2 11 -13 0
1 7 12 0
1 -8 9 0
1 -2 -9 0
-7 -13 -14 0
1 3 7 0
-7 -12 14 0
3 4 13 0
5 -7 8 0
5 -13 -14 0
-5 -9 -10 0
9 -11 -14 0
3 9 11 0
-2 6 -9 0
-1 6 -9 0
1 7 -8 0
3 4 -7 0
2 3 -8 0
-2 -7 -8 0
2 -4 5 0
4 5 8 0
-4 12 -14 0
-10 11 13 0
-2 -10 -12 0
1 -2 10 0
-5 -9 10 0
8 11 -14 0
-10 -12 -14 0
-4 12 13 0
-1 3 -8 0
-2 -4 -10 0
-3 7 14 0
-1 -9 11 0
-2 -6 -11 0
1 -8 -13 0
4 5 7 0
2 -6 -14 0
-2 3 -13 0
-4 -6 12 0
-5 8 -10 0
3 -10 13 0
4 -9 -10 0
